52
109
22
0
61
101
70
148
82
198
44
37
39
81
267
152
26
45
34
35
472
86
33
47
83
27
137
52
29
40
167
26
35
0
48
62
160
44
33
32
61
0
50
44
207
324
73
99
24
56
670
64
64
856
0
22
25
34
82
34
115
32
33
204
47
30
126
93
39
137
58
31
48
62
29
179
43
99
71
47
188
0
27
218
42
0
0
83
49
109
0
72
36
88
166
70
220
186
41
94
